&CONTROl
  calculation  = "scf",
  prefix       = "mote2",
  pseudo_dir   = "./",
  outdir       = "./",
/
&SYSTEM
  ibrav     = 0,
  celldm(1) = 6.71422853,
  nat       = 3,
  ntyp      = 2,
  ecutwfc   = 70,
  nspin     = 2
  tot_magnetization = 0.0
/
&ELECTRONS
  conv_thr    = 1.D-8,
  mixing_beta = 0.7D0,
/
&IONS
 ion_dynamics='bfgs',
/
&CELL
 cell_dynamics='bfgs',
 cell_dofree='2Dxy'
 press=0.0,
/
CELL_PARAMETERS {alat}
1.0  0.0000000  0.0
0.5  0.8660254  0.0
0.000000  0.0000000  7.0362371349

ATOMIC_SPECIES
Mo 95.95   Mo.upf
Te 127.6   Te.upf

ATOMIC_POSITIONS (crystal)
Mo            0.0000000000        0.0000000000        0.1892947233
Te            0.6666666666        0.6666666666        0.2617920637
Te            0.6666666666        0.6666666666        0.1167972488

K_POINTS {automatic}
12 12 1 0 0 0
